NAME : XML100_3373_06
DIMENSION : 101
NB_CLUSTERS : 6
CLUSTERING_ALG : KMeans
CLUSTERING_PARAMS : k(5)
CLUSTERS
1 0
2 3 4 10 21 22 23 24 28 32 37 38 42 50 54 57 58 61 62 63 66 71 72 74 80 85 88 94 96 99
3 1 7 8 9 17 25 26 31 36 47 51 53 59 64 67 73 86 91 95 100
4 16 18 33 40 43 44 52 60 69 70 75 76 77 89 90 92 97
5 2 6 13 19 20 27 29 30 41 46 55 56 68 78 83 93 98
6 5 11 12 14 15 34 35 39 45 48 49 65 79 81 82 84 87
EOF